20
0 1 0.22 0.22
0 2 0.16 0.16
0 3 0.18 0.18
0 4 0.41 0.3
0 5 0.23 0.23
0 6 0.71 0.4
0 7 0.49 0.4
0 8 0.64 0.23
0 9 0.66 0.34
0 10 0.24 0.24
0 11 0.3 0.16
0 12 0.44 0.11
0 13 0.4 0.4
0 14 0.16 0.16
0 15 0.89 0.26
0 16 0.3 0.3
0 17 0.25 0.18
0 18 0.54 0.2
0 19 0.18 0.18
1 2 0.17 0.17
1 3 0.55 0.29
1 4 0.66 0.22
1 5 0.58 0.1
1 6 0.3 0.3
1 7 0.46 0.46
1 8 0.34 0.26
1 9 0.22 0.22
1 10 0.2 0.2
1 11 0.68 0.37
1 12 0.22 0.22
1 13 0.37 0.37
1 14 0.25 0.25
1 15 0.46 0.24
1 16 0.74 0.4
1 17 0.43 0.23
1 18 0.52 0.29
1 19 0.52 0.32
2 3 0.66 0.12
2 4 0.58 0.35
2 5 0.07 0.07
2 6 0.36 0.24
2 7 0.5 0.41
2 8 0.25 0.25
2 9 0.19 0.19
2 10 0.08 0.08
2 11 0.3 0.3
2 12 0.05 0.05
2 13 0.36 0.36
2 14 0.46 0.22
2 15 0.69 0.21
2 16 0.59 0.24
2 17 0.46 0.2
2 18 0.26 0.26
2 19 0.29 0.29
3 4 0.34 0.34
3 5 0.38 0.19
3 6 0.68 0.28
3 7 0.45 0.45
3 8 0.48 0.24
3 9 0.31 0.31
3 10 0.2 0.2
3 11 0.76 0.24
3 12 0.07 0.07
3 13 0.41 0.28
3 14 0.17 0.17
3 15 0.69 0.33
3 16 0.74 0.36
3 17 0.32 0.15
3 18 0.21 0.21
3 19 0.25 0.25
4 5 0.29 0.29
4 6 0.72 0.27
4 7 0.5 0.49
4 8 0.78 0.1
4 9 0.41 0.41
4 10 0.3 0.3
4 11 0.15 0.15
4 12 0.74 0.3
4 13 0.48 0.39
4 14 0.38 0.17
4 15 0.3 0.3
4 16 0.29 0.29
4 17 0.19 0.19
4 18 0.13 0.13
4 19 0.34 0.34
5 6 0.47 0.28
5 7 0.62 0.46
5 8 0.56 0.19
5 9 0.16 0.12
5 10 0.49 0.15
5 11 0.37 0.37
5 12 0.46 0.12
5 13 0.32 0.32
5 14 0.6 0.15
5 15 0.14 0.14
5 16 0.46 0.3
5 17 0.13 0.13
5 18 0.19 0.19
5 19 0.22 0.22
6 7 0.28 0.28
6 8 0.37 0.37
6 9 0.3 0.3
6 10 0.57 0.32
6 11 0.41 0.41
6 12 0.29 0.29
6 13 0.54 0.43
6 14 0.36 0.3
6 15 0.69 0.14
6 16 0.27 0.27
6 17 0.46 0.32
6 18 0.48 0.34
6 19 0.22 0.22
7 8 0.42 0.42
7 9 0.64 0.52
7 10 0.55 0.49
7 11 0.42 0.42
7 12 0.41 0.41
7 13 0.44 0.44
7 14 0.38 0.38
7 15 0.52 0.42
7 16 0.34 0.34
7 17 0.36 0.36
7 18 0.4 0.4
7 19 0.73 0.5
8 9 0.48 0.31
8 10 0.81 0.33
8 11 0.25 0.25
8 12 0.32 0.2
8 13 0.86 0.35
8 14 0.64 0.07
8 15 0.64 0.33
8 16 0.78 0.27
8 17 0.64 0.09
8 18 0.6 0.03
8 19 0.27 0.27
9 10 0.26 0.26
9 11 0.44 0.32
9 12 0.6 0.24
9 13 0.53 0.29
9 14 0.27 0.27
9 15 0.56 0.26
9 16 0.3 0.18
9 17 0.25 0.25
9 18 0.31 0.31
9 19 0.58 0.34
10 11 0.69 0.38
10 12 0.13 0.13
10 13 0.4 0.4
10 14 0.3 0.3
10 15 0.7 0.29
10 16 0.24 0.24
10 17 0.28 0.28
10 18 0.91 0.34
10 19 0.37 0.37
11 12 0.27 0.27
11 13 0.58 0.24
11 14 0.32 0.32
11 15 0.42 0.42
11 16 0.14 0.14
11 17 0.55 0.34
11 18 0.48 0.28
11 19 0.54 0.34
12 13 0.57 0.35
12 14 0.24 0.24
12 15 0.26 0.26
12 16 0.6 0.29
12 17 0.32 0.22
12 18 0.75 0.23
12 19 0.29 0.29
13 14 0.28 0.28
13 15 0.69 0.46
13 16 0.16 0.16
13 17 0.73 0.3
13 18 0.32 0.32
13 19 0.38 0.38
14 15 0.7 0.28
14 16 0.2 0.2
14 17 0.4 0.02
14 18 0.54 0.04
14 19 0.67 0.2
15 16 0.3 0.3
15 17 0.27 0.27
15 18 0.54 0.32
15 19 0.08 0.08
16 17 0.22 0.22
16 18 0.24 0.24
16 19 0.22 0.22
17 18 0.43 0.06
17 19 0.22 0.22
18 19 0.78 0.24
